(declare-fun aR () Real)(declare-fun aI () Real)(declare-fun bR () Real)(declare-fun bI () Real)
(assert (> (* 37778931862957161709567 aR) bR))(assert (> aR 0))(assert (> bR 0))(assert (= aI 0))(assert (= bI 0))